 Code  2732
 Dimension, Fixed Cost
   100        3000
 Facility, Client, Transportation Cost
     1       31           0
     1       36           3
     1       40           2
     1       50           4
     1       86           3
     2       24           1
     2       25           0
     2       27           1
     2       36           1
     2       40           3
     2       55           2
     2       56           4
     2       79           2
     2       81           0
     3        3           2
     3        9           4
     3       44           1
     3       47           1
     3       73           3
     3       87           4
     3       90           2
     3       91           4
     3       99           1
     3      100           0
     4        9           2
     4       18           1
     4       27           3
     4       44           2
     4       68           1
     4       78           2
     4       79           0
     4       81           4
     4       83           4
     4       89           2
     5        7           4
     5       22           0
     5       29           1
     5       32           4
     5       49           0
     5       51           0
     5       59           3
     5       73           3
     5       94           4
     5       99           3
     5      100           1
     6       14           1
     6       19           4
     6       26           0
     6       33           4
     6       35           0
     6       42           0
     6       52           4
     6       57           2
     6       59           0
     6       68           4
     6       70           0
     6       80           3
     6       83           4
     6       86           2
     6       98           4
     6      100           0
     7        2           0
     7       17           1
     7       22           1
     7       33           4
     7       56           4
     7       66           3
     7       67           3
     7       70           3
     8        7           0
     8       36           3
     8       38           1
     8       43           0
     8       45           0
     8       64           1
     8       93           2
     8       95           0
     9        1           0
     9       13           1
     9       24           1
     9       40           2
     9       56           0
     9       72           2
     9       80           2
     9       81           0
     9       82           3
     9       85           1
    10        7           1
    10       20           3
    10       26           3
    10       52           3
    10       57           3
    10       75           2
    10       76           3
    10       84           0
    10       85           2
    10       99           4
    10      100           3
    11        1           3
    11        3           4
    11       17           3
    11       29           1
    11       34           1
    11       38           2
    11       41           0
    11       52           4
    11       54           0
    11       61           2
    11       66           3
    11       67           2
    11       74           0
    11       78           2
    11       90           0
    11       91           0
    12        6           2
    12       18           3
    12       22           2
    12       37           2
    12       45           2
    12       49           3
    12       71           0
    12       72           0
    12       75           2
    12       79           0
    12       81           2
    12       84           2
    12       98           3
    13        3           3
    13        5           3
    13        8           4
    13       14           4
    13       15           2
    13       16           0
    13       19           0
    13       20           4
    13       64           2
    13       70           4
    13       76           0
    14       16           2
    14       18           2
    14       22           2
    14       25           1
    14       37           4
    14       41           4
    15        5           1
    15       20           3
    15       29           0
    15       35           0
    15       44           3
    15       57           0
    15       58           3
    15       74           2
    15       75           2
    16        5           0
    16       11           3
    16       13           0
    16       22           1
    16       24           3
    16       26           1
    16       31           3
    16       36           3
    16       48           3
    16       50           2
    16       60           0
    16       89           3
    17       24           0
    17       27           2
    17       33           2
    17       50           1
    17       54           1
    17       62           0
    17       73           3
    17       79           2
    18        7           1
    18       17           4
    18       36           3
    18       39           0
    18       48           1
    18       49           4
    18       51           3
    18       52           2
    18       61           2
    18       92           0
    19       17           3
    19       42           4
    19       53           4
    19       56           4
    19       58           2
    19       64           3
    19       74           0
    19       84           3
    19       91           4
    19       92           1
    19       97           2
    19      100           1
    20        1           2
    20       11           0
    20       25           0
    20       45           4
    20       51           4
    20       56           2
    20       60           2
    20       64           1
    20       67           1
    20       78           3
    21        4           2
    21       13           2
    21       19           4
    21       28           1
    21       42           4
    21       53           2
    21       54           2
    21       72           4
    21       93           0
    21       94           2
    22        6           4
    22       34           1
    22       46           2
    22       61           2
    22       62           0
    22       73           2
    23       27           2
    23       33           0
    23       40           0
    23       53           3
    24       12           1
    24       14           4
    24       26           4
    24       38           3
    24       48           0
    24       54           4
    24       65           4
    24       72           4
    24       94           4
    24       96           3
    25       15           4
    25       20           1
    25       49           3
    25       51           4
    25       71           2
    25       73           4
    25       78           4
    26       16           2
    26       32           4
    26       37           3
    26       48           2
    26       55           0
    26       62           3
    26       66           2
    26       68           0
    26       72           1
    26       76           2
    26       78           2
    26       95           4
    27       12           4
    27       42           3
    27       46           3
    27       47           4
    27       53           2
    27       62           4
    27       71           0
    27       77           0
    27       94           2
    28        1           0
    28       11           1
    28       14           0
    28       22           0
    28       23           4
    28       25           1
    28       30           4
    28       38           3
    28       44           0
    28       63           4
    28       72           1
    28       84           4
    28       86           4
    28       91           1
    29        1           0
    29       12           1
    29       15           4
    29       18           0
    29       32           0
    29       34           0
    29       40           3
    29       50           4
    29       70           4
    29       85           0
    29       96           3
    30       17           2
    30       26           3
    30       27           4
    30       28           0
    30       49           0
    30       55           2
    30       58           1
    30       63           0
    30       78           4
    30       92           4
    31        4           1
    31       13           2
    31       16           1
    31       19           1
    31       37           1
    31       42           4
    31       44           1
    31       61           1
    31       64           1
    31       74           2
    31       77           1
    31       90           1
    32       35           3
    32       42           0
    32       43           1
    32       49           3
    32       53           3
    32       68           0
    32       82           3
    32       91           0
    33       31           2
    33       34           4
    33       46           1
    33       82           3
    33       87           4
    33       94           1
    33       96           4
    33       98           3
    34        2           0
    34        9           3
    34       11           2
    34       13           1
    34       23           0
    34       33           4
    34       43           0
    34       63           0
    34       74           2
    34       81           2
    34       86           1
    34       97           2
    35       17           0
    35       40           3
    35       58           2
    36        4           2
    36       20           0
    36       30           4
    36       35           0
    36       44           4
    36       66           4
    36       79           0
    36      100           1
    37       10           4
    37       24           1
    37       26           4
    37       27           4
    37       47           1
    37       67           3
    37       69           3
    37       83           2
    37       88           4
    37       90           0
    38        5           3
    38       19           2
    38       23           4
    38       36           1
    38       41           3
    38       50           0
    38       54           3
    38       65           4
    38       73           0
    38       83           0
    38       90           4
    39        5           3
    39       31           3
    39       38           0
    39       41           4
    39       42           4
    39       51           0
    39       58           4
    39       68           4
    39       73           4
    39       99           1
    40        2           2
    40       20           4
    40       23           0
    40       41           0
    40       46           3
    40       50           4
    40       67           0
    40       71           0
    40       78           0
    41        1           0
    41        2           2
    41        4           4
    41       12           0
    41       30           4
    41       34           2
    41       50           0
    41       52           1
    41       60           4
    41       75           0
    41       78           0
    41       88           0
    42        2           2
    42        4           3
    42        9           1
    42       21           3
    42       39           0
    42       58           3
    42       76           0
    42       77           4
    42       91           3
    42       93           2
    42       95           1
    43        8           4
    43       19           1
    43       21           4
    43       22           3
    43       23           2
    43       28           3
    43       29           0
    43       44           3
    43       59           0
    43       60           0
    43       61           0
    43       75           2
    43       76           0
    43       77           2
    43       79           2
    43       97           3
    43      100           2
    44        6           1
    44       10           0
    44       14           0
    44       25           4
    44       87           2
    44       95           4
    45       31           3
    45       33           1
    45       34           2
    45       37           3
    45       65           0
    45       66           0
    45       82           1
    45       87           3
    45       93           3
    46        4           0
    46       23           2
    46       28           4
    46       49           0
    46       52           1
    46       65           3
    46       70           4
    46       87           4
    46       89           1
    46       95           1
    47        8           3
    47       20           3
    47       26           0
    47       45           0
    47       46           2
    47       54           1
    47       57           4
    47       80           1
    47       81           4
    47       85           2
    47       90           2
    48        3           1
    48       10           2
    48       13           3
    48       38           4
    48       40           2
    48       48           0
    48       49           0
    48       55           1
    48       66           4
    48       69           3
    48       77           1
    49       17           0
    49       23           3
    49       40           0
    49       43           0
    49       46           1
    49       50           3
    49       65           4
    49       66           4
    49       72           2
    49       80           2
    49       87           2
    49       88           2
    49       96           4
    50        3           0
    50        6           1
    50        8           2
    50        9           1
    50       27           0
    50       29           1
    50       57           3
    50       60           0
    50       80           0
    50       82           2
    50       85           1
    50       92           0
    50       96           4
    51        4           1
    51       13           0
    51       21           1
    51       29           2
    51       35           0
    51       39           1
    51       45           3
    51       53           4
    51       57           0
    51       76           3
    51       82           3
    51       87           3
    52        3           2
    52        5           4
    52        8           3
    52       37           2
    52       46           4
    52       51           2
    52       56           2
    52       59           0
    52       69           0
    52       71           2
    52       76           2
    53        2           3
    53        7           0
    53       18           0
    53       38           3
    53       89           2
    53       93           2
    53       94           2
    54        2           3
    54        5           1
    54       38           1
    54       54           0
    54       57           0
    54       73           2
    54       74           1
    54       80           4
    54       90           1
    54       96           2
    54       98           3
    55       20           3
    55       27           2
    55       47           2
    55       49           4
    55       50           1
    55       63           4
    55      100           0
    56        4           3
    56       13           0
    56       28           4
    56       47           4
    56       48           2
    56       62           4
    56       77           3
    56       86           3
    56       88           0
    56       90           4
    56       93           1
    56       97           1
    57        5           2
    57       12           4
    57       22           3
    57       24           2
    57       33           4
    57       43           0
    57       65           4
    57       74           1
    57       77           1
    57       92           2
    57       99           4
    58        4           1
    58        6           3
    58        8           3
    58       18           2
    58       20           1
    58       40           2
    58       60           4
    58       71           3
    58       83           4
    58       89           0
    58       92           1
    59       10           4
    59       30           0
    59       39           0
    59       44           4
    59       45           4
    59       72           2
    59       92           2
    60       31           3
    60       41           3
    60       65           1
    60       94           2
    60       97           0
    61       15           4
    61       35           4
    61       41           1
    61       44           4
    61       68           3
    61       80           2
    61       82           0
    61       98           4
    62        2           2
    62       27           4
    62       30           1
    62       37           2
    62       39           1
    62       52           2
    62       54           1
    62       60           0
    62       65           4
    62       86           2
    63        8           2
    63       31           4
    63       41           3
    63       44           1
    63       59           0
    63       81           0
    63       82           0
    63       95           1
    64       13           4
    64       32           3
    64       35           2
    64       39           0
    64       51           0
    64       58           1
    64       64           2
    64       73           0
    64       76           3
    64       85           0
    64       96           0
    65        2           3
    65       15           4
    65       30           2
    65       43           0
    65       58           1
    65       65           4
    65       74           1
    65       86           4
    65       90           0
    65       97           0
    66        1           4
    66       10           4
    66       21           2
    66       24           0
    66       25           1
    66       29           3
    66       34           4
    66       42           3
    66       43           3
    66       47           1
    66       51           4
    66       62           1
    66       89           0
    66       95           0
    67       14           2
    67       17           3
    67       24           1
    67       59           2
    67       61           0
    67       75           0
    67       83           2
    67       98           4
    68       45           2
    68       84           1
    68       86           3
    68      100           4
    69        6           1
    69       31           0
    69       58           3
    69       66           3
    69       74           0
    69       85           4
    69       95           3
    69       99           1
    70        6           2
    70       15           0
    70       27           4
    70       28           4
    70       32           4
    70       39           2
    70       59           3
    70       63           0
    70       79           3
    70       80           2
    70       84           2
    70       88           4
    71       10           1
    71       14           0
    71       23           1
    71       28           3
    71       33           2
    71       35           3
    71       38           4
    71       53           2
    71       54           2
    71       69           3
    71       77           4
    71       93           3
    71       97           1
    72       22           2
    72       30           1
    72       45           1
    72       48           2
    72       57           1
    72       63           3
    72       66           3
    72       67           2
    72       70           4
    72       71           3
    72       98           1
    73        7           3
    73       49           4
    73       59           3
    73       69           1
    73       80           4
    73       87           1
    73       88           1
    73       92           3
    74        3           0
    74        5           1
    74        7           2
    74        8           1
    74       15           1
    74       21           4
    74       34           4
    74       36           4
    74       54           1
    74       61           0
    74       80           3
    74       87           1
    75        9           1
    75       28           3
    75       32           4
    75       43           4
    75       61           4
    75       81           3
    75       84           1
    75       89           4
    75       94           3
    75       96           2
    76       10           0
    76       18           4
    76       39           3
    76       55           0
    76       62           1
    76       67           4
    76       94           3
    76      100           1
    77       11           2
    77       15           1
    77       25           1
    77       69           2
    77       75           0
    78        6           3
    78        7           1
    78       10           2
    78       15           2
    78       28           4
    78       31           4
    78       47           4
    78       59           0
    78       67           1
    78       69           3
    78       70           0
    78       79           0
    78       98           0
    79       14           4
    79       24           2
    79       33           1
    79       56           2
    79       79           1
    79       81           4
    79       82           4
    79       88           1
    80        3           3
    80       17           4
    80       35           4
    80       36           4
    80       46           4
    80       47           1
    80       51           1
    80       55           1
    80       77           2
    80       91           4
    80       99           0
    81       12           0
    81       15           0
    81       17           1
    81       20           3
    81       21           3
    81       55           2
    81       91           4
    82        3           0
    82        9           2
    82       18           4
    82       19           4
    82       30           1
    82       32           0
    82       38           0
    82       53           0
    82       56           4
    82       64           1
    82       68           1
    82       71           2
    82       90           1
    83       45           0
    83       76           0
    83       83           1
    83       89           1
    83       91           0
    84        3           2
    84       10           4
    84       19           2
    84       37           3
    84       48           0
    84       52           3
    84       55           0
    84       71           4
    84       76           0
    84       86           2
    84       88           3
    84       96           3
    84       97           2
    85        6           4
    85        8           1
    85       11           1
    85       12           0
    85       16           3
    85       18           2
    85       69           3
    85       75           0
    85       78           4
    85       88           0
    86       10           4
    86       19           0
    86       28           2
    86       29           3
    86       31           2
    86       66           4
    86       94           2
    86       98           1
    86       99           1
    87        4           1
    87       14           1
    87       22           2
    87       25           3
    87       29           4
    87       62           2
    87       70           1
    87       96           2
    87       97           3
    88        1           3
    88       26           2
    88       32           4
    88       37           4
    88       41           2
    88       52           3
    88       55           2
    88       58           1
    88       61           4
    88       68           1
    88       69           4
    88       75           2
    89       11           2
    89       18           4
    89       19           1
    89       26           3
    89       33           0
    89       37           3
    89       39           2
    89       42           2
    89       60           1
    89       84           0
    90        9           2
    90       23           2
    90       32           1
    90       47           3
    90       53           4
    90       60           1
    90       63           1
    90       64           4
    90       83           3
    90       84           2
    90       85           0
    90       87           4
    90       95           0
    90       98           3
    90       99           2
    91        7           2
    91       11           2
    91       13           0
    91       21           1
    91       39           2
    91       41           0
    91       55           0
    91       62           1
    91       63           3
    91       79           3
    91       89           1
    91       92           4
    91       97           1
    92        6           4
    92        8           2
    92       16           2
    92       46           4
    92       47           3
    92       48           2
    92       50           3
    92       56           0
    92       64           1
    92       93           1
    93       12           4
    93       34           3
    93       42           2
    93       43           2
    93       45           1
    93       52           3
    93       57           2
    93       81           3
    93       83           4
    93       84           3
    93       91           1
    93       92           2
    93       93           2
    94        1           3
    94       11           2
    94       14           4
    94       16           1
    94       30           0
    94       34           2
    94       36           0
    94       46           0
    94       57           4
    94       63           0
    94       67           2
    94       68           4
    94       70           0
    94       71           0
    94       86           1
    94       89           2
    94       93           3
    95        5           3
    95       12           2
    95       23           3
    95       32           3
    95       72           4
    95       82           4
    96        7           3
    96        9           3
    96       21           4
    96       26           3
    96       36           1
    96       40           1
    96       43           4
    96       60           3
    96       69           0
    96       85           3
    97        2           3
    97       11           4
    97       21           3
    97       29           3
    97       30           2
    97       35           4
    97       51           3
    97       56           2
    97       64           2
    97       67           4
    97       72           4
    97       74           3
    97       77           3
    97       78           4
    97       83           2
    97       88           0
    97       95           2
    98        1           4
    98        9           3
    98       16           2
    98       24           2
    98       59           1
    98       73           2
    99       16           1
    99       25           2
    99       48           3
    99       62           0
    99       63           4
    99       68           2
    99       70           4
    99       85           3
    99       99           2
   100       12           1
   100       16           2
   100       21           4
   100       25           1
   100       53           0
   100       61           0
   100       65           3
   100       75           0
